unsat
(:cnf-encoding-aux-vars 48
 :elim-unconstrained    6
 :max-memory            19.02
 :memory                18.69
 :nlsat-arith-var       13
 :nlsat-atoms           108
 :nlsat-bool-var        61
 :nlsat-clauses         295
 :nlsat-conflicts       7
 :nlsat-decisions       8
 :nlsat-propagations    33
 :num-allocs            179416
 :rlimit-count          41396
 :solve-eqs-elim-vars   78
 :solve-eqs-steps       286
 :time                  0.01
 :total-time            0.03)
